304 5
10 10 10 10 10 

0 0 0 0 0 0 3 2 24 36 
0 0 0 0 0 0 9 3 4 6 7 18 19 20 21 22 
2 0 0 0 3 2 4 17 16 11 5 
8 0 0 0 7 8 5 15 13 12 11 9 
7 0 0 0 6 4 3 13 12 8 
9 0 0 0 8 9 2 14 11 
9 0 0 0 9 7 2 12 11 
1 0 0 0 8 5 1 9 
5 0 0 0 5 6 1 10 
1 0 0 0 9 6 1 23 
9 0 0 0 8 9 1 23 
4 0 0 0 10 10 1 23 
9 0 0 0 6 10 1 23 
2 0 0 0 8 7 1 23 
9 0 0 0 8 10 1 23 
10 0 0 0 10 5 1 23 
3 0 0 0 7 7 1 23 
4 0 0 0 6 10 1 23 
2 0 0 0 4 9 1 23 
2 0 0 0 10 9 2 23 91 
8 0 0 0 10 9 1 23 
8 0 0 0 8 8 1 23 
0 0 0 0 0 0 1 94 
0 0 0 0 0 0 5 25 26 27 30 34 
5 0 6 0 0 0 3 33 31 28 
4 0 4 0 0 0 2 32 29 
9 0 7 0 0 0 2 32 31 
2 0 10 0 0 0 1 32 
5 0 10 0 0 0 1 31 
8 0 10 0 0 0 1 31 
10 0 4 0 0 0 1 35 
10 0 9 0 0 0 1 35 
6 0 8 0 0 0 2 35 235 
6 0 7 0 0 0 1 35 
0 0 0 0 0 0 3 58 70 82 
0 0 0 0 0 0 8 37 38 39 41 42 43 44 47 
9 0 2 3 0 0 3 56 48 40 
1 0 7 8 0 0 5 56 54 50 48 45 
2 0 10 8 0 0 7 56 55 54 53 52 48 198 
7 0 6 5 0 0 4 55 54 46 45 
4 0 10 10 0 0 5 55 54 53 52 48 
9 0 6 9 0 0 5 55 54 53 52 49 
8 0 7 10 0 0 3 56 49 45 
4 0 7 10 0 0 4 54 53 52 49 
2 0 5 8 0 0 3 53 52 51 
8 0 10 6 0 0 2 53 49 
10 0 9 10 0 0 2 52 51 
7 0 10 2 0 0 1 49 
1 0 5 6 0 0 1 51 
4 0 5 10 0 0 1 51 
4 0 10 6 0 0 1 57 
7 0 9 10 0 0 1 57 
8 0 10 8 0 0 1 57 
3 0 9 6 0 0 1 57 
10 0 5 8 0 0 1 57 
2 0 8 7 0 0 1 57 
0 0 0 0 0 0 1 94 
0 0 0 0 0 0 3 59 60 61 
2 0 2 0 0 0 4 68 67 63 62 
3 0 6 0 0 0 5 68 67 66 65 63 
6 0 8 0 0 0 2 64 62 
10 0 8 0 0 0 2 66 65 
7 0 10 0 0 0 1 64 
2 0 10 0 0 0 1 69 
3 0 10 0 0 0 2 69 201 
7 0 8 0 0 0 1 69 
10 0 6 0 0 0 1 69 
8 0 7 0 0 0 1 69 
0 0 0 0 0 0 1 94 
0 0 0 0 0 0 6 71 72 73 75 76 80 
9 0 9 0 0 0 2 78 74 
2 0 4 0 0 0 3 78 77 273 
5 0 10 0 0 0 1 74 
5 0 10 0 0 0 1 77 
7 0 9 0 0 0 1 79 
1 0 5 0 0 0 1 77 
10 0 10 0 0 0 1 81 
1 0 5 0 0 0 1 81 
9 0 6 0 0 0 1 81 
6 0 7 0 0 0 1 81 
0 0 0 0 0 0 1 94 
0 0 0 0 0 0 6 83 84 86 90 91 92 
2 0 0 0 0 3 3 89 88 87 
3 0 0 0 0 7 2 87 85 
9 0 0 0 0 9 1 88 
7 0 0 0 0 6 1 87 
6 0 0 0 0 9 2 93 98 
10 0 0 0 0 10 1 93 
5 0 0 0 0 9 1 93 
7 0 0 0 0 9 1 93 
7 0 0 0 0 5 1 93 
1 0 0 0 0 8 1 93 
0 0 0 0 0 0 1 94 
0 0 0 0 0 0 5 95 117 139 161 173 
0 0 0 0 0 0 8 96 97 98 99 100 102 105 109 
9 6 0 0 0 2 5 114 113 106 103 101 
10 9 0 0 0 7 5 114 113 108 106 103 
6 5 0 0 0 6 6 115 114 113 112 111 106 
9 5 0 0 0 9 5 115 113 112 111 107 
2 6 0 0 0 6 4 113 112 111 106 
8 3 0 0 0 10 3 115 112 104 
7 8 0 0 0 5 4 114 107 103 301 
4 10 0 0 0 10 3 112 111 110 
3 6 0 0 0 6 2 111 107 
10 5 0 0 0 6 2 111 110 
7 7 0 0 0 10 1 107 
10 10 0 0 0 8 1 110 
2 7 0 0 0 10 1 110 
5 9 0 0 0 6 1 110 
7 8 0 0 0 9 1 116 
3 10 0 0 0 6 1 116 
6 8 0 0 0 6 1 116 
7 8 0 0 0 9 1 116 
10 10 0 0 0 9 1 116 
1 10 0 0 0 10 1 116 
0 0 0 0 0 0 1 255 
0 0 0 0 0 0 10 118 119 120 122 126 127 128 135 136 137 
5 0 4 0 3 0 3 134 130 123 
2 0 9 0 7 0 2 130 121 
1 0 5 0 6 0 3 133 131 124 
8 0 4 0 10 0 3 132 131 125 
6 0 6 0 10 0 2 131 125 
6 0 7 0 7 0 1 124 
9 0 9 0 8 0 1 125 
1 0 10 0 4 0 1 129 
4 0 9 0 10 0 1 130 
4 0 8 0 9 0 1 130 
10 0 10 0 6 0 1 129 
10 0 4 0 7 0 1 138 
9 0 5 0 10 0 1 138 
10 0 10 0 10 0 1 138 
1 0 7 0 3 0 2 138 302 
2 0 6 0 4 0 1 138 
4 0 9 0 10 0 1 138 
7 0 9 0 10 0 1 138 
1 0 10 0 8 0 1 138 
7 0 9 0 8 0 1 138 
0 0 0 0 0 0 1 255 
0 0 0 0 0 0 6 140 141 142 143 144 145 
8 0 0 1 2 0 6 154 150 149 148 147 146 
3 0 0 6 3 0 5 151 150 149 148 146 
5 0 0 10 10 0 4 150 148 147 146 
1 0 0 3 8 0 3 150 147 146 
5 0 0 8 5 0 3 150 148 146 
5 0 0 9 10 0 5 159 158 157 151 149 
3 0 0 10 9 0 5 159 158 157 153 152 
4 0 0 10 6 0 3 158 157 151 
9 0 0 9 5 0 3 159 157 152 
6 0 0 7 9 0 2 153 152 
6 0 0 7 8 0 3 158 156 155 
2 0 0 6 7 0 1 152 
5 0 0 5 10 0 3 156 155 248 
4 0 0 10 9 0 2 156 155 
6 0 0 7 5 0 2 157 155 
6 0 0 9 10 0 1 160 
2 0 0 7 10 0 1 160 
9 0 0 10 10 0 1 160 
7 0 0 9 8 0 1 160 
10 0 0 7 6 0 1 160 
0 0 0 0 0 0 1 255 
0 0 0 0 0 0 2 162 163 
9 2 0 0 0 0 3 170 168 164 
4 6 0 0 0 0 3 170 169 165 
6 10 0 0 0 0 4 171 169 167 166 
2 7 0 0 0 0 3 168 167 166 
1 10 0 0 0 0 1 172 
10 9 0 0 0 0 1 172 
1 6 0 0 0 0 1 172 
7 8 0 0 0 0 2 172 249 
5 9 0 0 0 0 1 172 
5 8 0 0 0 0 1 172 
0 0 0 0 0 0 5 195 207 219 231 243 
0 0 0 0 0 0 9 174 175 176 177 178 179 180 183 185 
8 0 3 0 0 6 3 193 187 181 
2 0 5 0 0 8 3 193 187 181 
4 0 6 0 0 8 3 193 187 182 
10 0 3 0 0 6 2 193 181 
10 0 9 0 0 7 5 193 192 188 187 186 
9 0 10 0 0 9 4 193 192 188 184 
7 0 5 0 0 8 5 193 188 187 184 205 
8 0 9 0 0 10 3 192 188 184 
9 0 8 0 0 4 2 192 184 
3 0 10 0 0 6 2 192 186 
3 0 10 0 0 10 1 186 
8 0 6 0 0 10 1 186 
5 0 10 0 0 7 2 190 189 
6 0 9 0 0 10 2 191 189 
5 0 9 0 0 5 1 191 
7 0 10 0 0 7 1 194 
1 0 5 0 0 6 1 194 
3 0 4 0 0 5 1 194 
9 0 10 0 0 10 1 194 
8 0 9 0 0 8 1 194 
0 0 0 0 0 0 1 255 
0 0 0 0 0 0 3 196 198 199 
9 5 0 0 0 0 3 204 200 197 
9 6 0 0 0 0 4 205 203 202 201 
3 5 0 0 0 0 4 204 203 202 201 
10 5 0 0 0 0 4 204 203 202 201 
4 10 0 0 0 0 1 201 
9 7 0 0 0 0 1 206 
5 9 0 0 0 0 1 206 
10 8 0 0 0 0 2 206 235 
6 10 0 0 0 0 1 206 
10 10 0 0 0 0 1 206 
0 0 0 0 0 0 1 255 
0 0 0 0 0 0 8 208 210 211 212 213 215 216 217 
4 0 2 0 0 0 1 209 
10 0 10 0 0 0 1 214 
4 0 8 0 0 0 1 214 
5 0 5 0 0 0 2 214 225 
3 0 9 0 0 0 1 214 
5 0 9 0 0 0 1 214 
6 0 5 0 0 0 1 218 
4 0 10 0 0 0 1 218 
6 0 10 0 0 0 1 218 
9 0 7 0 0 0 1 218 
0 0 0 0 0 0 1 255 
0 0 0 0 0 0 6 220 221 223 224 228 229 
1 4 0 0 0 0 2 227 222 
6 6 0 0 0 0 1 222 
4 5 0 0 0 0 2 225 239 
9 4 0 0 0 0 1 226 
3 10 0 0 0 0 1 225 
9 10 0 0 0 0 1 230 
1 6 0 0 0 0 1 230 
8 10 0 0 0 0 1 230 
6 10 0 0 0 0 1 230 
5 10 0 0 0 0 1 230 
0 0 0 0 0 0 1 255 
0 0 0 0 0 0 4 232 233 234 236 
10 6 0 0 0 0 3 238 237 235 
2 4 0 0 0 0 3 241 240 237 
10 8 0 0 0 0 3 240 238 237 
2 7 0 0 0 0 3 241 240 239 
5 6 0 0 0 0 2 240 237 
4 10 0 0 0 0 2 239 265 
5 7 0 0 0 0 1 239 
7 7 0 0 0 0 1 242 
1 10 0 0 0 0 1 242 
6 10 0 0 0 0 1 242 
0 0 0 0 0 0 1 255 
0 0 0 0 0 0 5 244 245 246 248 253 
10 0 0 0 0 2 3 250 249 247 
7 0 0 0 0 6 3 251 250 249 
10 0 0 0 0 10 2 252 250 
8 0 0 0 0 4 1 251 
1 0 0 0 0 8 1 249 
2 0 0 0 0 9 1 254 
1 0 0 0 0 8 2 254 272 
8 0 0 0 0 10 1 254 
5 0 0 0 0 8 1 254 
10 0 0 0 0 10 1 254 
0 0 0 0 0 0 1 255 
0 0 0 0 0 0 4 256 268 280 292 
0 0 0 0 0 0 6 257 258 260 264 265 266 
8 0 0 1 0 0 2 263 259 
2 0 0 3 0 0 2 262 261 
4 0 0 10 0 0 1 261 
10 0 0 10 0 0 1 261 
10 0 0 9 0 0 1 267 
7 0 0 10 0 0 1 267 
5 0 0 9 0 0 1 267 
1 0 0 8 0 0 1 267 
7 0 0 6 0 0 2 267 288 
5 0 0 9 0 0 1 267 
0 0 0 0 0 0 1 304 
0 0 0 0 0 0 4 269 270 271 272 
6 0 7 0 0 0 4 275 274 273 289 
10 0 4 0 0 0 3 275 274 273 
6 0 10 0 0 0 3 275 274 273 
8 0 4 0 0 0 2 275 273 
7 0 10 0 0 0 3 278 277 276 
2 0 10 0 0 0 3 278 277 276 
10 0 9 0 0 0 2 277 276 
4 0 5 0 0 0 1 279 
3 0 6 0 0 0 1 279 
4 0 10 0 0 0 1 279 
0 0 0 0 0 0 1 304 
0 0 0 0 0 0 4 281 283 284 298 
9 6 0 0 0 0 3 290 289 282 
9 5 0 0 0 0 3 288 286 285 
10 6 0 0 0 0 3 287 286 285 
3 8 0 0 0 0 2 287 285 
3 10 0 0 0 0 1 291 
8 10 0 0 0 0 1 291 
7 5 0 0 0 0 1 291 
4 6 0 0 0 0 1 291 
7 9 0 0 0 0 1 291 
7 10 0 0 0 0 1 291 
0 0 0 0 0 0 1 304 
0 0 0 0 0 0 5 293 294 295 301 302 
7 0 0 0 0 2 3 299 297 296 
4 0 0 0 0 7 3 299 298 297 
10 0 0 0 0 9 2 300 297 
2 0 0 0 0 9 1 298 
1 0 0 0 0 10 1 303 
7 0 0 0 0 7 1 303 
8 0 0 0 0 8 1 303 
3 0 0 0 0 10 1 303 
7 0 0 0 0 5 1 303 
7 0 0 0 0 8 1 303 
0 0 0 0 0 0 1 304 
0 0 0 0 0 0 0 
